nNurses = 132;
nHours = 31;
minHours = 6;
maxHours = 18;
maxConsec = 18;
maxPresence = 18;
demand = [40, 40, 39, 34, 37, 40, 37, 38, 40, 39, 39, 37, 38, 35, 39, 34, 29, 30, 30, 30, 31, 36, 37, 32, 36, 35, 36, 36, 34, 29, 24];
